
Gurobi 11.0.0 (win64) logging started Sat Jun 15 10:09:24 2024

Set parameter LogFile to value "./GurobiLog/stage_2_iter_21.log"
Gurobi Optimizer version 11.0.0 build v11.0.0rc2 (win64 - Windows 10.0 (18363.2))

CPU model: Intel(R) Core(TM) i7-8700 CPU @ 3.20GHz, instruction set [SSE2|AVX|AVX2]
Thread count: 6 physical cores, 12 logical processors, using up to 1 threads

Optimize a model with 1502 rows, 20471 columns and 150741 nonzeros
Coefficient statistics:
  Matrix range     [3e-03, 7e+03]
  Objective range  [1e-01, 2e+05]
  Bounds range     [7e-02, 6e+05]
  RHS range        [1e+00, 7e+04]
LP warm-start: use basis
Iteration    Objective       Primal Inf.    Dual Inf.      Time
       0    9.9006163e+03   8.378946e+04   0.000000e+00      0s
     293    2.5618070e+04   0.000000e+00   0.000000e+00      0s

Solved in 293 iterations and 0.04 seconds (0.04 work units)
Optimal objective  2.561806990e+04
